courier = 5;
items = 10;
courier_size = [10, 10, 19, 12, 11];
item_size = [6, 3, 2, 6, 4, 5, 3, 6, 4, 3];
starting_nd = [2, 2, 2, 2, 2, 2, 2, 2, 2, 2, 3, 3, 3, 3, 3, 3, 3, 3, 3, 3, 4, 4, 4, 4, 4, 4, 4, 4, 4, 4, 5, 5, 5, 5, 5, 5, 5, 5, 5, 5, 6, 6, 6, 6, 6, 6, 6, 6, 6, 6, 7, 7, 7, 7, 7, 7, 7, 7, 7, 7, 8, 8, 8, 8, 8, 8, 8, 8, 8, 8, 9, 9, 9, 9, 9, 9, 9, 9, 9, 9, 10, 10, 10, 10, 10, 10, 10, 10, 10, 10, 11, 11, 11, 11, 11, 11, 11, 11, 11, 11, 1, 1, 1, 1, 1, 1, 1, 1, 1, 1];
ending_nd = [3, 4, 5, 6, 7, 8, 9, 10, 11, 12, 2, 4, 5, 6, 7, 8, 9, 10, 11, 12, 2, 3, 5, 6, 7, 8, 9, 10, 11, 12, 2, 3, 4, 6, 7, 8, 9, 10, 11, 12, 2, 3, 4, 5, 7, 8, 9, 10, 11, 12, 2, 3, 4, 5, 6, 8, 9, 10, 11, 12, 2, 3, 4, 5, 6, 7, 9, 10, 11, 12, 2, 3, 4, 5, 6, 7, 8, 10, 11, 12, 2, 3, 4, 5, 6, 7, 8, 9, 11, 12, 2, 3, 4, 5, 6, 7, 8, 9, 10, 12, 2, 3, 4, 5, 6, 7, 8, 9, 10, 11];
weights = [5, 3, 2, 2, 2, 4, 2, 3, 1, 5, 2, 1, 1, 1, 2, 2, 2, 3, 4, 2, 4, 2, 4, 2, 2, 2, 5, 4, 1, 2, 4, 2, 3, 3, 3, 3, 1, 5, 4, 1, 4, 2, 4, 4, 1, 4, 5, 2, 5, 2, 2, 4, 5, 1, 3, 1, 3, 5, 4, 3, 5, 4, 3, 3, 5, 4, 3, 5, 1, 2, 4, 3, 2, 2, 5, 5, 2, 5, 5, 1, 1, 5, 3, 4, 1, 1, 4, 1, 2, 3, 4, 2, 2, 2, 1, 3, 4, 3, 1, 4, 4, 5, 5, 4, 3, 5, 5, 1, 5, 5];
n_edges = 110;
